* ENCODING=ISO-8859-1
NAME          CPLEX
ROWS
 N  obj1    
 G  c1      
 G  c2      
 G  c3      
 G  c4      
 G  c5      
 G  c6      
 G  c7      
 G  c8      
 G  c9      
 G  c10     
 G  c11     
 G  c12     
 G  c13     
 G  c14     
 G  c15     
 G  c16     
 G  c17     
 G  c18     
 G  c19     
 G  c20     
 G  c21     
 G  c22     
 G  c23     
 G  c24     
 G  c25     
COLUMNS
    MARK0000  'MARKER'                 'INTORG'
    x1        obj1                            1
    x1        c18                           183
    x1        c19                           265
    x2        obj1                            1
    x2        c4                            801
    x2        c25                           372
    x3        obj1                            1
    x3        c21                           707
    x4        obj1                            1
    x4        c1                            267
    x4        c8                            368
    x4        c16                           458
    x5        obj1                            1
    x5        c1                            935
    x5        c4                            469
    x5        c7                            665
    x5        c12                           994
    x6        obj1                            1
    x6        c9                            879
    x6        c11                           544
    x6        c19                           206
    x7        obj1                            1
    x7        c8                            339
    x7        c13                           426
    x7        c15                           528
    x7        c17                           769
    x8        obj1                            1
    x8        c10                           669
    x8        c17                           274
    x8        c21                           120
    x8        c22                           238
    x9        obj1                            1
    x9        c6                            202
    x9        c12                           928
    x9        c16                           404
    x9        c23                           576
    x9        c24                           933
    x10       obj1                            1
    x10       c11                           937
    x10       c18                           328
    x11       obj1                            1
    x11       c8                            523
    x11       c12                           618
    x11       c24                           510
    x12       obj1                            1
    x12       c1                            705
    x12       c2                            167
    x12       c25                           990
    x13       obj1                            1
    x13       c9                            331
    x13       c11                           833
    x13       c14                           352
    x13       c24                           408
    x14       obj1                            1
    x14       c11                           253
    x14       c15                           369
    x15       obj1                            1
    x15       c9                            583
    x15       c12                           877
    x15       c21                           770
    x16       obj1                            1
    x16       c11                           772
    x16       c20                           291
    x16       c22                           679
    x17       obj1                            1
    x17       c14                           646
    x17       c18                           727
    x18       obj1                            1
    x18       c5                            352
    x18       c7                            609
    x18       c9                            856
    x18       c10                           534
    x18       c14                           633
    x19       obj1                            1
    x19       c11                           991
    x20       obj1                            1
    x20       c6                            374
    x20       c24                           115
    x21       obj1                            1
    x21       c15                           748
    x22       obj1                            1
    x22       c7                            262
    x22       c14                           997
    x22       c25                           850
    x23       obj1                            1
    x23       c1                            964
    x23       c12                           452
    x24       obj1                            1
    x24       c21                           208
    x25       obj1                            1
    x25       c4                            870
    x25       c6                            946
    x26       obj1                            1
    x26       c3                            909
    x26       c7                            523
    x27       obj1                            1
    x27       c7                            743
    x27       c10                           922
    x28       obj1                            1
    x28       c8                            598
    x28       c17                           588
    x28       c25                           813
    x29       obj1                            1
    x29       c25                           836
    x30       obj1                            1
    x30       c23                           861
    x31       obj1                            1
    x31       c13                           401
    x32       obj1                            1
    x32       c3                            677
    x32       c5                            650
    x32       c16                           737
    x32       c19                           736
    x33       obj1                            1
    x34       obj1                            1
    x34       c14                           849
    x34       c20                           768
    x35       obj1                            1
    x35       c2                            629
    x35       c9                            616
    x35       c13                           351
    x35       c21                           491
    x36       obj1                            1
    x36       c5                            407
    x36       c7                            861
    x37       obj1                            1
    x37       c9                            462
    x38       obj1                            1
    x38       c4                            420
    x38       c6                            361
    x39       obj1                            1
    x39       c20                           483
    x39       c22                           116
    x39       c24                           334
    x40       obj1                            1
    x40       c3                            943
    x40       c4                            578
    x40       c23                           918
    x41       obj1                            1
    x41       c4                            860
    x41       c9                            859
    x42       obj1                            1
    x42       c12                           136
    x42       c20                           220
    x43       obj1                            1
    x43       c1                            828
    x43       c12                           915
    x43       c13                           144
    x43       c19                           594
    x44       obj1                            1
    x44       c2                            237
    x44       c7                            744
    x44       c20                           659
    x44       c24                           146
    x44       c25                           828
    x45       obj1                            1
    x45       c11                           273
    x45       c14                           267
    x45       c16                           434
    x45       c23                           632
    x46       obj1                            1
    x46       c1                            606
    x46       c3                            667
    x46       c4                            739
    x46       c20                           837
    x47       obj1                            1
    x47       c6                            982
    x47       c19                           761
    x48       obj1                            1
    x48       c6                            610
    x48       c10                           984
    x48       c25                           564
    x49       obj1                            1
    x49       c1                            248
    x50       obj1                            1
    x50       c19                           444
    x50       c20                           323
    x50       c21                           283
    x50       c24                           132
    MARK0001  'MARKER'                 'INTEND'
RHS
    rhs       c1                           2277
    rhs       c2                            517
    rhs       c3                           1598
    rhs       c4                           2369
    rhs       c5                            705
    rhs       c6                           1738
    rhs       c7                           2204
    rhs       c8                            914
    rhs       c9                           2293
    rhs       c10                          1555
    rhs       c11                          2302
    rhs       c12                          2460
    rhs       c13                           661
    rhs       c14                          1872
    rhs       c15                           823
    rhs       c16                          1017
    rhs       c17                           816
    rhs       c18                           619
    rhs       c19                          1503
    rhs       c20                          1791
    rhs       c21                          1290
    rhs       c22                           517
    rhs       c23                          1494
    rhs       c24                          1289
    rhs       c25                          2627
BOUNDS
 LI bnd       x1        0
 LI bnd       x2        0
 LI bnd       x3        0
 LI bnd       x4        0
 LI bnd       x5        0
 LI bnd       x6        0
 LI bnd       x7        0
 LI bnd       x8        0
 LI bnd       x9        0
 LI bnd       x10       0
 LI bnd       x11       0
 LI bnd       x12       0
 LI bnd       x13       0
 LI bnd       x14       0
 LI bnd       x15       0
 LI bnd       x16       0
 LI bnd       x17       0
 LI bnd       x18       0
 LI bnd       x19       0
 LI bnd       x20       0
 LI bnd       x21       0
 LI bnd       x22       0
 LI bnd       x23       0
 LI bnd       x24       0
 LI bnd       x25       0
 LI bnd       x26       0
 LI bnd       x27       0
 LI bnd       x28       0
 LI bnd       x29       0
 LI bnd       x30       0
 LI bnd       x31       0
 LI bnd       x32       0
 LI bnd       x33       0
 LI bnd       x34       0
 LI bnd       x35       0
 LI bnd       x36       0
 LI bnd       x37       0
 LI bnd       x38       0
 LI bnd       x39       0
 LI bnd       x40       0
 LI bnd       x41       0
 LI bnd       x42       0
 LI bnd       x43       0
 LI bnd       x44       0
 LI bnd       x45       0
 LI bnd       x46       0
 LI bnd       x47       0
 LI bnd       x48       0
 LI bnd       x49       0
 LI bnd       x50       0
ENDATA
